(set-info :smt-lib-version 2.6)
(set-logic QF_UFLRA)
(set-info :source |
MathSat group

|)
(set-info :category "random")
(set-info :status sat)
(declare-fun x0 () Real)
(declare-fun x1 () Real)
(declare-fun x2 () Real)
(declare-fun x3 () Real)
(declare-fun x4 () Real)
(declare-fun x5 () Real)
(declare-fun x6 () Real)
(declare-fun x7 () Real)
(declare-fun x8 () Real)
(declare-fun x9 () Real)
(declare-fun x10 () Real)
(declare-fun x11 () Real)
(declare-fun x12 () Real)
(declare-fun x13 () Real)
(declare-fun x14 () Real)
(declare-fun x15 () Real)
(declare-fun x16 () Real)
(declare-fun x17 () Real)
(declare-fun x18 () Real)
(declare-fun x19 () Real)
(declare-fun x20 () Real)
(declare-fun x21 () Real)
(declare-fun x22 () Real)
(declare-fun x23 () Real)
(declare-fun x24 () Real)
(declare-fun x25 () Real)
(declare-fun x26 () Real)
(declare-fun x27 () Real)
(declare-fun x28 () Real)
(declare-fun x29 () Real)
(declare-fun x30 () Real)
(declare-fun x31 () Real)
(declare-fun x32 () Real)
(declare-fun x33 () Real)
(declare-fun x34 () Real)
(declare-fun x35 () Real)
(declare-fun x36 () Real)
(declare-fun x37 () Real)
(declare-fun x38 () Real)
(declare-fun x39 () Real)
(declare-fun x40 () Real)
(declare-fun x41 () Real)
(declare-fun x42 () Real)
(declare-fun x43 () Real)
(declare-fun x44 () Real)
(declare-fun x45 () Real)
(declare-fun x46 () Real)
(declare-fun x47 () Real)
(declare-fun x48 () Real)
(declare-fun x49 () Real)
(declare-fun f0_1 (Real) Real)
(declare-fun f0_2 (Real Real) Real)
(declare-fun f0_3 (Real Real Real) Real)
(declare-fun f0_4 (Real Real Real Real) Real)
(declare-fun P0 () Bool)
(declare-fun P1 () Bool)
(declare-fun P2 () Bool)
(declare-fun P3 () Bool)
(declare-fun P4 () Bool)
(declare-fun P5 () Bool)
(declare-fun P6 () Bool)
(declare-fun P7 () Bool)
(declare-fun P8 () Bool)
(declare-fun P9 () Bool)
(declare-fun P10 () Bool)
(declare-fun P11 () Bool)
(declare-fun P12 () Bool)
(declare-fun P13 () Bool)
(declare-fun P14 () Bool)
(declare-fun P15 () Bool)
(declare-fun P16 () Bool)
(declare-fun P17 () Bool)
(declare-fun P18 () Bool)
(declare-fun P19 () Bool)
(declare-fun P20 () Bool)
(declare-fun P21 () Bool)
(declare-fun P22 () Bool)
(declare-fun P23 () Bool)
(declare-fun P24 () Bool)
(declare-fun P25 () Bool)
(declare-fun P26 () Bool)
(declare-fun P27 () Bool)
(declare-fun P28 () Bool)
(declare-fun P29 () Bool)
(declare-fun P30 () Bool)
(declare-fun P31 () Bool)
(declare-fun P32 () Bool)
(declare-fun P33 () Bool)
(declare-fun P34 () Bool)
(declare-fun P35 () Bool)
(declare-fun P36 () Bool)
(declare-fun P37 () Bool)
(declare-fun P38 () Bool)
(declare-fun P39 () Bool)
(declare-fun P40 () Bool)
(declare-fun P41 () Bool)
(declare-fun P42 () Bool)
(declare-fun P43 () Bool)
(declare-fun P44 () Bool)
(declare-fun P45 () Bool)
(declare-fun P46 () Bool)
(declare-fun P47 () Bool)
(declare-fun P48 () Bool)
(declare-fun P49 () Bool)
(assert (let ((?v_172 (* 17 x2)) (?v_13 (* 2 x42))) (let ((?v_123 (<= (+ (- ?v_13 (* 27 x48)) (* 6 x48)) 23)) (?v_213 (< (+ (- (* 8 x27) (* 27 x41)) (* 25 x34)) 0)) (?v_136 (* 20 x2)) (?v_9 (* 27 x16)) (?v_122 (< (- (- (* 16 x13) (* 22 x36)) ?v_13) 20))) (let ((?v_97 (< (+ (- (* 22 x3) ?v_9) (* 25 x14)) 22)) (?v_163 (* 15 x4)) (?v_115 (<= (+ (- (* 11 x38) (* 26 x43)) (* 24 x3)) 0)) (?v_82 (< (- (+ (* 18 x9) (* 2 x49)) (* 11 x21)) 25)) (?v_64 (* 18 x13)) (?v_53 (< (- (+ (* 14 x32) (* 7 x23)) (* 13 x41)) 13)) (?v_57 (* 24 x6)) (?v_21 (f0_1 x39)) (?v_47 (f0_1 x29))) (let ((?v_104 (= ?v_21 ?v_47)) (?v_125 (f0_1 x1))) (let ((?v_128 (= ?v_125 (f0_1 x49))) (?v_63 (distinct (f0_1 x32) x42)) (?v_22 (f0_1 x3))) (let ((?v_42 (= x15 ?v_22)) (?v_114 (= x48 (f0_2 x35 x9))) (?v_48 (f0_2 x10 x16))) (let ((?v_231 (distinct ?v_48 (f0_2 x39 x34))) (?v_177 (= (f0_2 x38 x42) x12)) (?v_24 (f0_1 x4))) (let ((?v_39 (= ?v_24 x11)) (?v_23 (f0_2 x5 x43))) (let ((?v_150 (distinct x1 ?v_23)) (?v_38 (= (f0_2 x19 x19) (f0_2 x49 x24))) (?v_56 (= (f0_2 x16 x7) x31)) (?v_199 (distinct (f0_2 x0 x24) x34)) (?v_10 (f0_1 x24))) (let ((?v_59 (distinct x27 ?v_10)) (?v_262 (distinct (f0_2 x28 x4) (f0_2 x15 x2))) (?v_106 (f0_1 x16))) (let ((?v_205 (= ?v_106 (f0_1 x9))) (?v_222 (distinct x48 (f0_1 x36))) (?v_28 (distinct x46 x15)) (?v_188 (= x19 ?v_24)) (?v_156 (f0_1 x19))) (let ((?v_166 (= ?v_156 (f0_2 x32 x16))) (?v_110 (distinct x25 (f0_2 x31 x0))) (?v_101 (distinct (f0_2 x0 x34) (f0_2 x30 x11))) (?v_220 (= x17 (f0_2 x34 x1))) (?v_36 (distinct (f0_2 x39 x12) ?v_23)) (?v_4 (= x41 (f0_2 x10 x39))) (?v_18 (= x41 ?v_21)) (?v_184 (distinct ?v_47 ?v_106)) (?v_255 (= x10 x39)) (?v_69 (distinct (f0_1 x31) (f0_2 x6 x32))) (?v_88 (= x4 (f0_1 x33))) (?v_78 (distinct x21 x17)) (?v_152 (= x3 x16)) (?v_90 (distinct (f0_1 x21) ?v_125)) (?v_139 (= x3 (f0_2 x1 x29))) (?v_142 (= (f0_2 x1 x21) (f0_2 x37 x9))) (?v_124 (= ?v_10 x44)) (?v_154 (= (f0_2 x31 x1) (f0_2 x44 x40))) (?v_103 (= (f0_2 x37 x38) x15)) (?v_49 (f0_1 x30))) (let ((?v_55 (distinct ?v_49 (f0_2 x25 x33))) (?v_216 (= (f0_1 x34) (f0_1 x8))) (?v_96 (distinct ?v_47 ?v_48)) (?v_146 (= x3 x7)) (?v_16 (distinct x26 (f0_2 x22 x27))) (?v_246 (distinct (f0_2 x36 x10) (f0_2 x21 x47))) (?v_85 (= (f0_1 x7) ?v_49)) (?v_130 (= x20 (f0_2 x13 x2))) (?v_61 (= (f0_1 x5) x7)) (?v_204 (distinct x31 x13)) (?v_71 (distinct x16 x13)) (?v_95 (= ?v_22 ?v_156))) (let ((?v_46 (not ?v_130)) (?v_0 (not ?v_71)) (?v_112 (not P42)) (?v_17 (not P22)) (?v_131 (not ?v_152)) (?v_2 (not ?v_82)) (?v_12 (not P13)) (?v_73 (not P11)) (?v_27 (not P28)) (?v_168 (not P9)) (?v_15 (not P3)) (?v_5 (not P31)) (?v_6 (not P38)) (?v_70 (not P14)) (?v_25 (not ?v_88)) (?v_20 (not P26)) (?v_89 (not P5)) (?v_100 (not P36)) (?v_138 (not ?v_4)) (?v_7 (not ?v_246)) (?v_232 (not P16)) (?v_201 (not ?v_110)) (?v_167 (not P18)) (?v_165 (not P1)) (?v_65 (not ?v_139)) (?v_29 (not ?v_69)) (?v_50 (not P10)) (?v_87 (not P2)) (?v_54 (not ?v_63)) (?v_26 (not P32)) (?v_99 (not P35)) (?v_32 (not ?v_36)) (?v_178 (not P34)) (?v_148 (not ?v_42)) (?v_19 (not ?v_18)) (?v_200 (not P43)) (?v_77 (not ?v_104)) (?v_80 (not ?v_28)) (?v_62 (not ?v_150)) (?v_151 (not P8)) (?v_43 (not ?v_188)) (?v_116 (not ?v_222)) (?v_40 (not P44)) (?v_223 (not ?v_38)) (?v_234 (not ?v_39)) (?v_180 (not P12)) (?v_221 (not ?v_97)) (?v_155 (not ?v_53)) (?v_79 (not ?v_199)) (?v_249 (not ?v_61)) (?v_126 (not P24)) (?v_67 (not ?v_55)) (?v_207 (not P29)) (?v_68 (not ?v_204)) (?v_171 (not P39)) (?v_145 (not P15)) (?v_186 (not P41)) (?v_153 (not ?v_177)) (?v_107 (not ?v_205)) (?v_203 (not P40)) (?v_158 (not P19)) (?v_134 (not ?v_220)) (?v_144 (not ?v_90)) (?v_127 (not P47)) (?v_197 (not P30)) (?v_102 (not ?v_96)) (?v_196 (not ?v_85)) (?v_195 (not P27)) (?v_135 (not ?v_101)) (?v_149 (not P7)) (?v_210 (not ?v_103)) (?v_173 (not ?v_184)) (?v_192 (not ?v_115)) (?v_229 (not P23)) (?v_132 (not ?v_122)) (?v_157 (not ?v_154)) (?v_160 (not ?v_124)) (?v_241 (not P37)) (?v_208 (not P33)) (?v_179 (not ?v_213)) (?v_185 (not ?v_142)) (?v_159 (not P45)) (?v_206 (not P25)) (?v_162 (not ?v_95)) (?v_169 (not P49)) (?v_218 (not ?v_59)) (?v_187 (not P6)) (?v_266 (not P4)) (?v_264 (not ?v_114)) (?v_235 (not ?v_166)) (?v_242 (not ?v_16)) (?v_257 (not ?v_262)) (?v_214 (not ?v_146)) (?v_227 (not P21)) (?v_238 (not ?v_123)) (?v_236 (not P48)) (?v_256 (not P0)) (?v_247 (not P17))) (let ((?v_258 (or ?v_97 ?v_201)) (?v_259 (not (= (f0_2 x32 x27) (f0_1 x47)))) (?v_248 (not ?v_128)) (?v_252 (not P20)) (?v_253 (not ?v_56)) (?v_250 (not ?v_216)) (?v_254 (not P46)) (?v_267 (not ?v_255)) (?v_265 (not ?v_78)) (?v_11 (< (+ (* 2 x9) x12) 24))) (let ((?v_198 (not ?v_11)) (?v_33 (<= (+ (* 22 x11) (* 17 x13) (* 21 x34)) 28)) (?v_51 (<= (+ (* 17 x30) (* 10 x25) (* 14 x16)) 26))) (let ((?v_190 (not ?v_33)) (?v_133 (< (+ (* 18 x31) ?v_163 (* 22 x12)) 11)) (?v_105 (<= (- (+ (* 21 x32) (* 15 x7)) 0) 21)) (?v_219 (not ?v_51))) (let ((?v_226 (not ?v_105)) (?v_243 (not ?v_133)) (?v_60 (<= (- (+ (* (- 23) x17) (* 21 x28)) 0) 28))) (let ((?v_84 (not ?v_60)) (?v_1 (< (+ (* (- 22) x44) (* 20 x12) (* 20 x25)) 24)) (?v_41 (= (+ (- (* 16 x25) (* 17 x33)) ?v_9) (- 13)))) (let ((?v_75 (not ?v_41)) (?v_3 (<= (- (- (* 17 x42) (* 8 x20)) (* 17 x41)) (- 23))) (?v_129 (< (- (- (* 21 x42) (* 25 x25)) 0) (- 29)))) (let ((?v_119 (not ?v_129)) (?v_111 (<= (+ (* (- 27) x37) (* 10 x24) (* 12 x26)) 25))) (let ((?v_66 (not ?v_111)) (?v_45 (< (+ (- (* 13 x14) (* 12 x20)) (* 22 x25)) (- 9)))) (let ((?v_251 (not ?v_45)) (?v_8 (< (+ (* 6 x0) (* 20 x42) (* 2 x32)) (- 26))) (?v_58 (= (+ (- (* (- 7) x45) (* 22 x45)) (* 21 x21)) 16)) (?v_37 (= (- (* (- 8) x39) (* 17 x7)) (- 6)))) (let ((?v_108 (not ?v_8)) (?v_14 (<= (- (* (- 10) x33) x41) 6)) (?v_209 (< (- (- ?v_9 (* 26 x13)) (* 26 x47)) (- 10)))) (let ((?v_52 (not ?v_209)) (?v_117 (distinct (+ (* (- 24) x37) (* 19 x16) (* 24 x31)) (- 24))) (?v_44 (<= (+ (- (* (- 10) x6) 0) (* 16 x28)) 14)) (?v_140 (< (+ (- (* (- 27) x43) (* 17 x4)) (* 25 x1)) (- 24))) (?v_34 (<= (- (- (* (- 9) x16) (* 17 x23)) 0) (- 9)))) (let ((?v_260 (or ?v_34 ?v_124)) (?v_31 (<= (+ (* (- 14) x41) ?v_136 (* 5 x45)) (- 22)))) (let ((?v_164 (not ?v_31)) (?v_30 (* (- 2) x44))) (let ((?v_94 (distinct (+ (- ?v_30 ?v_64) (* 20 x10)) (- 23)))) (let ((?v_141 (not ?v_94)) (?v_35 (not ?v_1)) (?v_193 (< (+ (* (- 11) x25) (* 2 x46) (* 15 x23)) 13)) (?v_98 (not ?v_14)) (?v_81 (< (+ (* (- 3) x44) (* 15 x2)) (- 18)))) (let ((?v_86 (not ?v_81)) (?v_137 (<= (- (- (* (- 6) x47) (* 3 x6)) 0) 11)) (?v_120 (not ?v_3)) (?v_182 (<= (- (- (* 18 x11) ?v_57) (* 6 x42)) (- 23)))) (let ((?v_244 (not ?v_182)) (?v_91 (< (- (- (* (- 7) x2) x18) (* 3 x24)) (- 2))) (?v_121 (<= (- (+ ?v_30 (* 2 x30)) (* 20 x6)) 23)) (?v_194 (= (+ (* (- 2) x47) (* 8 x35) (* 9 x32)) 15)) (?v_245 (not ?v_37)) (?v_263 (not ?v_44)) (?v_143 (<= (- (- 0 (* 10 x19)) (* 25 x45)) (- 28)))) (let ((?v_183 (not ?v_143)) (?v_176 (< (+ (- (* 4 x6) (* 21 x22)) (* 24 x26)) (- 25)))) (let ((?v_72 (not ?v_176)) (?v_93 (<= (- (- (* 6 x33) (* 4 x42)) (* 15 x46)) (- 3))) (?v_170 (<= (+ ?v_57 (* 21 x13) (* 10 x14)) (- 4))) (?v_76 (distinct (- (+ (* (- 21) x45) (* 14 x28)) (* 11 x4)) (- 5))) (?v_74 (< (+ (* (- 17) x27) ?v_64 (* 21 x43)) 26))) (let ((?v_109 (not ?v_74)) (?v_215 (not ?v_58)) (?v_92 (not ?v_76)) (?v_113 (= (- (- (* 16 x8) (* 5 x15)) ?v_172) (- 15))) (?v_83 (< (- (+ (* (- 21) x42) (* 16 x42)) (* 21 x35)) 7))) (let ((?v_212 (not ?v_83)) (?v_225 (not ?v_93)) (?v_118 (<= (+ (* 7 x5) (* 23 x40)) (- 13))) (?v_161 (not ?v_113))) (let ((?v_147 (not ?v_118)) (?v_261 (not ?v_34)) (?v_181 (not ?v_117)) (?v_202 (<= (+ (* 18 x25) (* 24 x45) ?v_136) (- 3)))) (let ((?v_228 (not ?v_202)) (?v_224 (not ?v_140)) (?v_189 (< (- (- (* 22 x49) (* 3 x19)) 0) (- 26))) (?v_239 (not ?v_121)) (?v_211 (not ?v_91)) (?v_230 (<= (- (+ (* (- 7) x10) (* 27 x23)) ?v_163) (- 12)))) (let ((?v_174 (not ?v_230)) (?v_175 (not (<= (- (* (- 11) x29) ?v_172) (- 12)))) (?v_191 (not ?v_137)) (?v_233 (not ?v_189)) (?v_240 (not ?v_193)) (?v_237 (not ?v_194)) (?v_217 (not ?v_170))) (and (and (and (and (and (and (and (and (and (and (and (and (and (and (and (and (and (and (and (and (and (and (and (and (and (and (and (and (and (and (and (and (and (and (and (and (and (and (and (and (and (and (and (and (and (and (and (and (and (and (and (and (and (and (and (and (and (and (and (and (and (and (and (and (and (and (and (and (and (and (and (and (and (and (and (and (and (and (and (and (and (and (and (and (and (and (and (and (and (and (and (and (and (and (and (and (and (and (and (and (and (and (and (and (and (and (and (and (and (and (and (and (and (and (and (and (and (and (and (and (and (and (and (and (and (and (and (and (and (and (and (and (and (and (and (and (and (and (and (and (and (and (and (and (and (and (and (and (and (and (and (and (and (and (and (and (and (and (and (and (and (and (and (and (and (and (and (and (and (and (and (and (and (and (and (and (and (and (and (and (and (and (and (and (and (and (and (and (and (and (and (and (and (and (and (and (and (and (and (and (and (and (and (and (and (and (and (and (and (and (and (and (and (and (and (and (and (and (and (and (and (and (and (and (and (and (and (and (and (and (and (and (and (and (and (and (and (and (and (and (and (and (and (and (and (and (and (and (and (and (and (and (and (and (and (and (and (and (and (and (and (and (and (and (and (and (and (and (and (and (and (and (and (and (and (and (and (and (and (and (and (and (and (and (and (and (and (and (and (and (and (and (and (and (and (and (and (and (and (and (and (and (and (and (and (and (and (and (and (and (and (and (and (and (and (and (and (and (and (and (and (and (and (and (and (and (and (and (and (and (and (and (and (and (and (and (and (and (and (and (and (and (and (and (and (and (and (and (and (and (and (and (and (and (and (and (and (and (and (and (and (and (and (and (and (and (and (and (and (and (and (and (and (and (and (and (and (and (and (and (and (and (and (and (and (and (and (and (and (and (and (and (and (and (and (and (and (and (and (and (and (and (and (and (and (and (and (and (and (and (and (and (and (and (and (and (and (and (and (and (and (and (and (and (and (and (and (and (and (and (and (and (and (and (and (and (and (and (and (and (and (and (and (and (and (and (and (and (and (and (and (and (and (and (and (and (and (and (and (and (and (and (and (and (and (and (and (and (and (and (and (and (and (and (and (and (and (and (and (and (and (and (and (and (and (and (and (and (and (and (and (and (and (and (and (and (and (and (and (and (and (and (and (and (and (and (and (and (and (and (and (and (and (and (and (and (and (and (and (and (and (and (and (and (and (and (and (and (and (and (and (and (and (and (and (and (and (and (and (and (and (and (and (and (and (and (and (and (and (and (and (and (and (and (and (and (and (and (and (and (and (and (and (and (and (and (and (and (and (and (and (and (and (and (and (and (and (and (and (and (and (and (and (and (and (and (and (and (and (and (and (and (and (and (and (and (and (and (and (or (or P24 ?v_84) ?v_1) (or (or ?v_16 P23) P12)) (or (or ?v_46 ?v_75) ?v_0)) (or (or P40 ?v_112) ?v_146)) (or (or P44 ?v_59) ?v_17)) (or (or P49 ?v_3) ?v_198)) (or (or ?v_0 P49) P10)) (or (or ?v_1 ?v_131) ?v_39)) (or (or P21 ?v_2) ?v_12)) (or (or P46 ?v_56) ?v_73)) (or (or ?v_2 ?v_27) ?v_168)) (or (or ?v_15 P45) ?v_119)) (or (or ?v_5 ?v_6) ?v_123)) (or (or ?v_3 ?v_70) ?v_25)) (or (or ?v_20 ?v_66) ?v_251)) (or (or ?v_231 ?v_89) ?v_100)) (or (or P38 ?v_8) ?v_58)) (or (or ?v_33 ?v_138) ?v_78)) (or (or ?v_7 ?v_4) ?v_5)) (or (or ?v_37 ?v_6) ?v_7)) (or (or ?v_232 ?v_108) ?v_14)) (or (or ?v_52 ?v_117) ?v_6)) (or (or ?v_201 ?v_44) ?v_167)) (or (or P34 P30) ?v_165)) (or (or ?v_65 ?v_140) ?v_29)) (or (or ?v_51 ?v_50) ?v_87)) (or ?v_260 ?v_11)) (or (or ?v_54 ?v_164) ?v_26)) (or (or ?v_18 ?v_141) ?v_12)) (or (or ?v_35 ?v_122) ?v_193)) (or (or ?v_99 P36) P49)) (or (or ?v_98 ?v_15) P16)) (or (or ?v_16 ?v_32) ?v_11)) (or (or P45 ?v_3) ?v_178)) (or (or P19 ?v_148) ?v_17)) (or (or ?v_19 ?v_11) ?v_200)) (or (or ?v_19 ?v_20) ?v_142)) (or (or ?v_86 ?v_77) ?v_80)) (or (or P21 ?v_90) ?v_95)) (or (or ?v_62 ?v_53) ?v_151)) (or (or ?v_43 P43) ?v_38)) (or (or ?v_25 ?v_26) ?v_27)) (or (or ?v_55 ?v_137) P4)) (or (or P43 ?v_120) P3)) (or (or ?v_28 P9) ?v_29)) (or (or ?v_244 P43) ?v_61)) (or (or ?v_91 P31) ?v_121)) (or (or ?v_31 ?v_32) ?v_190)) (or (or ?v_114 ?v_25) P1)) (or (or P30 ?v_34) ?v_116)) (or (or ?v_35 ?v_40) ?v_36)) (or (or ?v_194 P2) ?v_245)) (or (or ?v_223 ?v_234) ?v_0)) (or (or ?v_40 ?v_41) ?v_180)) (or (or ?v_42 ?v_38) ?v_43)) (or (or ?v_39 ?v_263) ?v_20)) (or (or ?v_26 ?v_45) ?v_115)) (or (or ?v_46 ?v_29) ?v_183)) (or (or P21 ?v_96) ?v_72)) (or (or ?v_85 ?v_50) ?v_7)) (or (or ?v_51 ?v_18) ?v_221)) (or (or ?v_93 ?v_52) ?v_155)) (or (or P7 P38) ?v_54)) (or (or ?v_79 P18) ?v_55)) (or (or ?v_56 ?v_170) ?v_38)) (or (or ?v_58 ?v_59) ?v_60)) (or (or ?v_249 ?v_62) ?v_8)) (or (or ?v_126 ?v_67) ?v_207)) (or (or ?v_101 ?v_25) P40)) (or (or P29 ?v_76) ?v_32)) (or (or ?v_63 ?v_133) ?v_109)) (or (or ?v_28 ?v_65) P22)) (or (or ?v_66 ?v_59) ?v_1)) (or (or ?v_14 ?v_68) ?v_67)) (or (or ?v_68 ?v_171) ?v_145)) (or (or ?v_69 ?v_28) ?v_186)) (or (or ?v_70 P36) ?v_216)) (or (or ?v_153 ?v_71) ?v_72)) (or (or ?v_73 ?v_107) ?v_74)) (or (or ?v_75 ?v_76) ?v_77)) (or (or ?v_215 ?v_105) ?v_40)) (or (or ?v_78 ?v_44) P21)) (or (or ?v_79 ?v_68) ?v_71)) (or (or ?v_80 P41) ?v_77)) (or (or ?v_81 ?v_92) ?v_4)) (or (or ?v_203 P39) ?v_113)) (or (or ?v_212 P49) ?v_59)) (or (or ?v_158 ?v_82) P32)) (or (or ?v_83 ?v_84) ?v_85)) (or (or P4 ?v_86) ?v_134)) (or (or ?v_87 ?v_88) ?v_89)) (or (or ?v_144 ?v_91) ?v_35)) (or (or ?v_90 ?v_92) ?v_225)) (or (or P16 ?v_63) ?v_79)) (or (or P30 ?v_127) ?v_83)) (or (or ?v_94 P38) ?v_197)) (or (or ?v_95 ?v_102) P32)) (or (or P34 ?v_77) ?v_97)) (or (or P32 ?v_196) ?v_65)) (or (or ?v_98 ?v_74) ?v_118)) (or (or P47 ?v_99) ?v_103)) (or (or ?v_195 ?v_100) ?v_135)) (or (or P43 ?v_102) ?v_149)) (or (or ?v_210 ?v_86) ?v_67)) (or (or ?v_104 ?v_15) ?v_105)) (or (or ?v_68 ?v_173) P28)) (or (or P15 ?v_71) ?v_107)) (or (or P21 ?v_36) ?v_29)) (or (or ?v_97 ?v_108) ?v_109)) (or (or ?v_110 ?v_55) ?v_35)) (or (or ?v_94 ?v_111) ?v_112)) (or (or ?v_161 ?v_114) ?v_115)) (or (or ?v_192 ?v_100) ?v_110)) (or (or ?v_116 ?v_25) ?v_229)) (or (or ?v_20 ?v_117) ?v_147)) (or (or ?v_119 ?v_120) ?v_261)) (or (or ?v_121 ?v_56) ?v_101)) (or (or ?v_132 ?v_157) ?v_38)) (or (or ?v_89 P35) ?v_123)) (or (or ?v_63 ?v_160) ?v_128)) (or (or ?v_72 ?v_43) ?v_126)) (or (or ?v_26 P27) P37)) (or (or ?v_181 ?v_59) ?v_241)) (or (or ?v_45 ?v_101) ?v_127)) (or (or P29 ?v_128) ?v_129)) (or (or ?v_3 ?v_130) ?v_208)) (or (or ?v_66 ?v_131) ?v_132)) (or (or P35 ?v_133) ?v_134)) (or (or ?v_135 ?v_46) ?v_228)) (or (or ?v_83 ?v_137) P6)) (or (or ?v_137 ?v_179) ?v_32)) (or (or ?v_29 ?v_91) ?v_61)) (or (or ?v_99 P40) ?v_138)) (or (or ?v_42 ?v_11) ?v_139)) (or (or ?v_123 ?v_224) ?v_141)) (or (or ?v_103 P42) P7)) (or (or ?v_134 ?v_185) ?v_143)) (or (or ?v_101 ?v_69) ?v_67)) (or (or ?v_50 ?v_144) P19)) (or (or ?v_145 ?v_4) P7)) (or (or ?v_76 ?v_121) ?v_146)) (or (or ?v_111 P30) ?v_147)) (or (or ?v_83 ?v_1) ?v_51)) (or (or ?v_146 ?v_32) ?v_148)) (or (or ?v_149 ?v_85) ?v_150)) (or (or ?v_189 ?v_2) ?v_89)) (or (or ?v_151 ?v_67) ?v_126)) (or (or ?v_18 ?v_29) P47)) (or (or ?v_51 ?v_111) ?v_16)) (or (or ?v_152 ?v_102) P38)) (or (or ?v_159 P37) ?v_1)) (or (or ?v_67 ?v_87) ?v_40)) (or (or ?v_153 ?v_6) ?v_154)) (or (or ?v_143 ?v_36) P2)) (or (or ?v_239 ?v_76) ?v_74)) (or (or P17 ?v_61) ?v_130)) (or (or ?v_82 P12) ?v_66)) (or (or ?v_83 ?v_155) ?v_206)) (or (or P45 ?v_51) ?v_72)) (or (or P27 ?v_162) ?v_166)) (or (or ?v_219 ?v_154) P9)) (or (or ?v_94 ?v_82) ?v_157)) (or (or ?v_131 ?v_158) ?v_157)) (or (or ?v_211 ?v_169) ?v_159)) (or (or ?v_160 ?v_161) ?v_162)) (or (or ?v_62 P14) ?v_100)) (or (or ?v_138 ?v_67) ?v_115)) (or (or ?v_78 ?v_174) ?v_164)) (or (or ?v_59 ?v_165) ?v_159)) (or (or ?v_25 ?v_6) ?v_1)) (or (or P48 ?v_166) ?v_167)) (or (or ?v_168 ?v_118) ?v_53)) (or (or ?v_65 ?v_3) ?v_11)) (or (or ?v_147 P18) ?v_218)) (or (or ?v_88 ?v_112) P25)) (or (or ?v_113 ?v_169) ?v_77)) (or (or ?v_170 P16) ?v_147)) (or (or ?v_171 ?v_79) ?v_175)) (or (or P22 ?v_187) ?v_173)) (or (or P9 ?v_52) P8)) (or (or ?v_34 ?v_33) ?v_266)) (or (or P41 ?v_56) ?v_174)) (or (or ?v_175 ?v_39) ?v_154)) (or (or ?v_176 P48) ?v_142)) (or (or ?v_177 P22) P42)) (or (or ?v_178 ?v_179) ?v_52)) (or (or ?v_180 P28) ?v_181)) (or (or P44 ?v_182) ?v_178)) (or (or P28 ?v_183) ?v_109)) (or (or ?v_264 ?v_175) ?v_127)) (or (or ?v_123 ?v_151) ?v_3)) (or (or ?v_169 ?v_184) P22)) (or (or ?v_124 ?v_75) ?v_141)) (or (or ?v_191 ?v_38) ?v_185)) (or (or ?v_186 ?v_187) ?v_188)) (or (or ?v_164 ?v_109) ?v_233)) (or (or P0 ?v_105) P12)) (or (or ?v_174 ?v_190) ?v_76)) (or (or ?v_133 ?v_191) ?v_66)) (or (or P3 ?v_111) ?v_116)) (or (or ?v_161 P3) P19)) (or (or ?v_235 ?v_129) ?v_175)) (or (or P40 P31) P1)) (or (or ?v_73 ?v_175) ?v_11)) (or (or ?v_87 P12) ?v_192)) (or (or ?v_242 ?v_240) ?v_237)) (or (or ?v_168 ?v_195) ?v_176)) (or (or ?v_196 P49) P8)) (or (or ?v_197 P29) ?v_198)) (or (or ?v_199 P16) ?v_200)) (or (or ?v_115 ?v_158) ?v_257)) (or (or ?v_164 ?v_157) ?v_129)) (or (or P18 ?v_142) ?v_86)) (or (or ?v_144 ?v_6) ?v_77)) (or (or ?v_153 ?v_199) ?v_42)) (or (or ?v_201 ?v_139) P48)) (or (or ?v_38 ?v_202) ?v_101)) (or (or ?v_137 ?v_74) ?v_140)) (or (or P33 ?v_80) ?v_179)) (or (or ?v_203 ?v_204) ?v_178)) (or (or P37 ?v_214) ?v_205)) (or (or ?v_176 ?v_187) ?v_67)) (or (or ?v_78 P38) ?v_105)) (or (or P49 ?v_7) ?v_206)) (or (or ?v_42 ?v_7) ?v_151)) (or (or ?v_2 ?v_207) ?v_88)) (or (or ?v_115 ?v_227) ?v_121)) (or (or ?v_208 ?v_152) P14)) (or (or ?v_130 ?v_51) ?v_142)) (or (or ?v_209 ?v_111) ?v_180)) (or (or ?v_139 ?v_210) ?v_211)) (or (or P9 ?v_167) ?v_54)) (or (or ?v_146 ?v_109) ?v_73)) (or (or ?v_145 ?v_91) P2)) (or (or P18 ?v_117) P10)) (or (or ?v_51 P11) ?v_117)) (or (or ?v_153 ?v_5) ?v_46)) (or (or ?v_114 ?v_212) ?v_141)) (or (or ?v_19 ?v_210) ?v_217)) (or (or P48 P13) ?v_132)) (or (or P10 ?v_201) ?v_139)) (or (or P6 ?v_213) ?v_214)) (or (or P20 ?v_173) ?v_129)) (or (or ?v_238 P18) ?v_139)) (or (or ?v_215 ?v_80) ?v_216)) (or (or ?v_236 ?v_217) ?v_218)) (or (or P45 ?v_219) ?v_134)) (or (or ?v_87 ?v_2) ?v_88)) (or (or ?v_122 ?v_100) ?v_28)) (or (or ?v_220 ?v_200) ?v_256)) (or (or ?v_67 ?v_140) P11)) (or (or ?v_211 ?v_152) P27)) (or (or ?v_95 ?v_154) ?v_67)) (or (or ?v_144 ?v_221) ?v_17)) (or (or ?v_83 ?v_247) ?v_70)) (or (or ?v_63 ?v_28) ?v_75)) (or (or ?v_114 P44) P23)) (or (or ?v_90 ?v_5) ?v_129)) (or (or ?v_198 ?v_168) ?v_154)) (or (or ?v_199 ?v_197) ?v_111)) (or (or ?v_5 ?v_140) ?v_211)) (or (or ?v_139 ?v_88) ?v_149)) (or (or ?v_26 ?v_222) ?v_114)) (or (or ?v_105 ?v_43) ?v_0)) (or (or ?v_217 ?v_223) ?v_153)) (or (or ?v_147 ?v_127) ?v_7)) (or (or ?v_33 P45) ?v_79)) (or (or ?v_93 ?v_211) P9)) (or (or ?v_123 ?v_76) P41)) (or (or P34 P15) ?v_226)) (or (or ?v_191 ?v_146) P44)) (or (or ?v_55 ?v_224) ?v_225)) (or (or P8 ?v_91) ?v_184)) (or ?v_258 P5)) (or (or P22 P37) ?v_111)) (or (or ?v_78 ?v_29) ?v_226)) (or (or ?v_101 ?v_203) ?v_31)) (or (or ?v_32 ?v_165) P37)) (or (or ?v_78 ?v_227) ?v_85)) (or (or P30 ?v_171) ?v_228)) (or (or ?v_34 P25) ?v_72)) (or (or ?v_161 ?v_76) ?v_226)) (or (or P2 ?v_17) ?v_122)) (or (or ?v_27 ?v_221) ?v_50)) (or (or ?v_133 ?v_208) ?v_229)) (or (or ?v_143 ?v_189) ?v_19)) (or (or ?v_66 ?v_181) P22)) (or (or ?v_151 ?v_230) ?v_60)) (or (or ?v_171 ?v_124) ?v_95)) (or (or P28 ?v_112) ?v_92)) (or (or ?v_231 ?v_232) P29)) (or (or ?v_211 ?v_43) P3)) (or (or ?v_75 ?v_123) ?v_91)) (or (or ?v_233 ?v_134) ?v_122)) (or (or ?v_211 ?v_195) ?v_90)) (or (or ?v_29 P26) ?v_146)) (or (or P22 ?v_234) P20)) (or (or ?v_66 ?v_38) ?v_4)) (or (or ?v_209 ?v_204) P47)) (or (or ?v_2 P49) ?v_98)) (or (or ?v_180 ?v_235) ?v_203)) (or (or ?v_158 ?v_236) P40)) (or (or ?v_190 ?v_171) ?v_59)) (or (or P31 ?v_229) ?v_26)) (or (or ?v_40 ?v_237) ?v_238)) (or (or ?v_4 ?v_18) ?v_38)) (or (or ?v_112 ?v_88) ?v_137)) (or (or P0 ?v_219) ?v_88)) (or (or ?v_104 ?v_115) ?v_61)) (or (or ?v_39 ?v_196) P36)) (or (or ?v_42 ?v_222) ?v_207)) (or (or P15 ?v_239) ?v_32)) (or (or ?v_164 P18) ?v_178)) (or (or ?v_110 ?v_90) ?v_140)) (or (or ?v_46 ?v_194) ?v_135)) (or (or ?v_214 ?v_259) ?v_137)) (or (or ?v_84 P15) ?v_83)) (or (or ?v_229 ?v_153) ?v_87)) (or (or ?v_99 ?v_113) ?v_0)) (or (or ?v_120 ?v_137) P38)) (or (or P48 P29) ?v_232)) (or (or ?v_28 ?v_143) ?v_227)) (or (or ?v_90 P32) ?v_11)) (or (or ?v_230 ?v_99) ?v_17)) (or (or ?v_240 ?v_50) ?v_208)) (or (or ?v_206 ?v_207) ?v_33)) (or (or ?v_207 P5) ?v_96)) (or (or ?v_123 ?v_35) ?v_127)) (or (or P9 P8) ?v_248)) (or (or ?v_186 ?v_135) ?v_66)) (or (or ?v_165 ?v_255) ?v_181)) (or (or P42 ?v_96) P40)) (or (or ?v_241 ?v_113) ?v_217)) (or (or ?v_150 ?v_240) ?v_213)) (or (or ?v_11 ?v_40) ?v_69)) (or (or ?v_232 ?v_124) ?v_242)) (or (or ?v_181 ?v_74) ?v_159)) (or (or ?v_14 P27) ?v_169)) (or (or ?v_69 ?v_199) ?v_124)) (or (or P2 P44) ?v_206)) (or (or P48 ?v_67) ?v_127)) (or (or ?v_16 ?v_41) ?v_169)) (or (or ?v_134 P10) ?v_238)) (or (or ?v_34 P9) ?v_61)) (or (or ?v_124 ?v_243) ?v_0)) (or (or ?v_137 ?v_133) P20)) (or (or ?v_243 ?v_26) ?v_226)) (or (or ?v_204 ?v_134) P41)) (or (or ?v_68 ?v_93) P13)) (or (or ?v_208 P43) ?v_17)) (or (or P39 P7) ?v_205)) (or (or P43 ?v_213) ?v_68)) (or (or ?v_2 ?v_118) P24)) (or (or ?v_176 ?v_84) ?v_33)) (or (or ?v_191 ?v_81) P28)) (or (or ?v_205 ?v_226) ?v_144)) (or (or P40 ?v_219) ?v_11)) (or (or ?v_81 ?v_104) ?v_200)) (or (or ?v_244 ?v_29) ?v_107)) (or (or ?v_26 ?v_32) ?v_44)) (or (or ?v_138 ?v_61) ?v_222)) (or (or ?v_75 ?v_61) ?v_119)) (or (or ?v_189 ?v_159) ?v_245)) (or (or P20 ?v_90) ?v_242)) (or (or ?v_207 ?v_51) ?v_194)) (or (or ?v_87 ?v_230) ?v_214)) (or (or ?v_93 ?v_96) ?v_186)) (or (or P24 ?v_195) ?v_124)) (or (or ?v_242 ?v_8) ?v_205)) (or (or ?v_192 ?v_98) P0)) (or (or ?v_157 ?v_215) ?v_246)) (or (or ?v_50 ?v_83) P39)) (or (or ?v_114 ?v_41) ?v_104)) (or (or ?v_32 ?v_51) P24)) (or (or ?v_102 P10) P39)) (or (or ?v_108 ?v_245) ?v_121)) (or (or ?v_81 ?v_252) ?v_40)) (or (or ?v_246 ?v_161) ?v_160)) (or (or ?v_253 ?v_66) P17)) (or (or ?v_20 P10) P2)) (or (or P26 ?v_14) ?v_181)) (or (or ?v_190 ?v_89) ?v_117)) (or (or ?v_152 P13) P11)) (or (or ?v_61 ?v_127) ?v_5)) (or (or P33 ?v_14) ?v_214)) (or (or ?v_150 ?v_52) ?v_180)) (or (or ?v_82 ?v_247) ?v_248)) (or (or ?v_166 P23) ?v_68)) (or (or ?v_129 ?v_27) ?v_250)) (or (or ?v_201 ?v_132) ?v_234)) (or (or ?v_249 ?v_250) ?v_98)) (or (or ?v_224 ?v_167) ?v_19)) (or (or ?v_191 ?v_117) ?v_129)) (or (or P1 P28) ?v_190)) (or (or P23 ?v_87) ?v_12)) (or (or ?v_166 ?v_157) ?v_15)) (or (or ?v_176 ?v_251) ?v_210)) (or (or ?v_105 P10) ?v_162)) (or (or ?v_144 ?v_36) ?v_83)) (or (or ?v_28 ?v_135) ?v_89)) (or (or ?v_110 P44) ?v_183)) (or (or ?v_111 ?v_170) ?v_36)) (or (or ?v_75 ?v_194) P37)) (or (or ?v_219 ?v_19) ?v_133)) (or (or P14 ?v_252) ?v_194)) (or (or ?v_7 ?v_36) P24)) (or (or ?v_202 ?v_76) ?v_239)) (or (or ?v_52 ?v_211) ?v_196)) (or (or ?v_149 ?v_74) P32)) (or (or P31 ?v_190) P1)) (or (or ?v_4 ?v_103) P3)) (or (or ?v_244 ?v_103) ?v_209)) (or (or ?v_82 P4) ?v_5)) (or (or ?v_62 ?v_40) ?v_112)) (or (or ?v_74 ?v_61) ?v_220)) (or (or P34 ?v_216) ?v_50)) (or (or ?v_245 ?v_253) ?v_70)) (or (or ?v_180 ?v_128) P14)) (or (or ?v_87 ?v_175) P9)) (or (or ?v_227 P38) ?v_254)) (or (or ?v_231 ?v_174) ?v_11)) (or (or ?v_184 ?v_251) ?v_42)) (or (or ?v_240 ?v_218) ?v_217)) (or (or ?v_162 P18) ?v_184)) (or (or P24 ?v_214) P7)) (or (or P20 ?v_68) ?v_221)) (or (or ?v_176 ?v_44) ?v_175)) (or (or ?v_25 ?v_131) ?v_151)) (or (or ?v_145 ?v_145) ?v_6)) (or (or ?v_141 ?v_124) ?v_251)) (or (or ?v_216 P36) P3)) (or (or ?v_207 P22) P5)) (or (or ?v_116 P1) ?v_247)) (or (or ?v_40 ?v_238) ?v_184)) (or (or ?v_91 ?v_133) P9)) (or (or ?v_237 ?v_234) ?v_111)) (or (or ?v_221 ?v_199) ?v_193)) (or (or ?v_133 ?v_244) ?v_74)) (or (or ?v_72 ?v_121) ?v_254)) (or (or P14 P21) ?v_31)) (or (or ?v_108 ?v_189) ?v_65)) (or (or P44 ?v_175) ?v_101)) (or (or ?v_170 ?v_105) ?v_215)) (or (or ?v_146 ?v_190) ?v_243)) (or (or ?v_116 ?v_207) P47)) (or (or ?v_63 ?v_211) ?v_164)) (or (or ?v_238 P12) ?v_191)) (or (or ?v_239 ?v_191) ?v_190)) (or (or ?v_224 ?v_78) ?v_178)) (or (or ?v_105 ?v_70) ?v_118)) (or (or ?v_225 ?v_71) P23)) (or (or P23 ?v_89) ?v_142)) (or (or ?v_89 ?v_229) ?v_198)) (or (or P5 P6) ?v_204)) (or (or ?v_197 ?v_161) ?v_166)) (or (or ?v_228 ?v_170) ?v_126)) (or (or ?v_246 ?v_129) ?v_217)) (or (or ?v_105 P39) ?v_118)) (or (or ?v_77 ?v_74) P7)) (or (or ?v_79 ?v_135) ?v_209)) (or (or ?v_119 ?v_196) ?v_133)) (or (or ?v_83 P37) ?v_167)) (or (or ?v_111 ?v_183) ?v_37)) (or (or ?v_238 ?v_267) P43)) (or (or ?v_154 ?v_218) ?v_121)) (or (or ?v_256 P45) ?v_42)) (or (or ?v_89 ?v_240) ?v_65)) (or (or ?v_20 P13) P7)) (or (or P7 ?v_59) ?v_37)) (or (or ?v_74 ?v_78) ?v_232)) (or (or ?v_151 ?v_11) ?v_226)) (or (or ?v_166 ?v_218) ?v_212)) (or (or ?v_242 ?v_257) ?v_160)) (or (or ?v_77 ?v_265) ?v_194)) (or (or P29 ?v_243) ?v_51)) (or (or ?v_231 ?v_104) ?v_16)) (or (or ?v_103 ?v_228) P48)) (or (or ?v_200 ?v_87) ?v_88)) (or (or ?v_69 ?v_11) ?v_104)) (or (or ?v_165 P20) ?v_181)) (or (or ?v_60 ?v_14) ?v_126)) (or (or ?v_76 P47) P34)) (or (or P35 ?v_229) ?v_186)) (or (or ?v_17 ?v_53) ?v_41)) (or (or P41 ?v_191) ?v_165)) (or (or ?v_135 ?v_155) ?v_211)) (or (or ?v_169 ?v_240) ?v_54)) (or ?v_258 ?v_253)) (or (or ?v_194 ?v_3) ?v_184)) (or (or ?v_56 ?v_218) P27)) (or (or ?v_99 P49) ?v_194)) (or (or ?v_66 ?v_239) ?v_164)) (or (or ?v_188 ?v_33) ?v_27)) (or (or ?v_237 ?v_158) ?v_238)) (or (or ?v_180 ?v_133) ?v_112)) (or (or P18 ?v_12) ?v_231)) (or (or P40 ?v_44) ?v_152)) (or (or ?v_253 ?v_259) ?v_54)) (or (or ?v_83 P31) ?v_157)) (or (or ?v_130 ?v_175) ?v_112)) (or (or ?v_180 ?v_196) ?v_157)) (or (or ?v_236 ?v_70) ?v_175)) (or (or ?v_151 ?v_119) ?v_70)) (or (or ?v_44 P9) ?v_93)) (or (or P47 P14) ?v_204)) (or ?v_260 P49)) (or (or ?v_43 ?v_59) ?v_130)) (or (or ?v_94 ?v_128) ?v_67)) (or (or ?v_82 ?v_112) ?v_42)) (or (or ?v_35 ?v_209) ?v_149)) (or (or ?v_90 ?v_261) ?v_222)) (or (or P48 ?v_252) ?v_44)) (or (or ?v_134 ?v_98) ?v_91)) (or (or ?v_139 ?v_197) P15)) (or (or ?v_211 ?v_150) ?v_197)) (or (or ?v_8 ?v_81) ?v_33)) (or (or ?v_222 ?v_99) P13)) (or (or P13 P27) ?v_185)) (or (or ?v_60 P35) ?v_123)) (or (or ?v_152 ?v_98) ?v_97)) (or (or ?v_148 ?v_39) ?v_228)) (or (or ?v_142 ?v_218) ?v_180)) (or (or P22 ?v_42) ?v_0)) (or (or P7 ?v_51) ?v_261)) (or (or ?v_180 P33) ?v_162)) (or (or ?v_255 P37) P32)) (or (or ?v_241 P1) ?v_65)) (or (or ?v_40 ?v_42) ?v_262)) (or (or ?v_240 P32) ?v_14)) (or (or ?v_35 ?v_135) ?v_83)) (or (or ?v_1 ?v_165) ?v_199)) (or (or ?v_109 ?v_132) ?v_97)) (or (or ?v_180 ?v_25) ?v_99)) (or (or ?v_63 ?v_248) ?v_124)) (or (or ?v_39 P38) ?v_71)) (or (or ?v_128 ?v_173) P39)) (or (or ?v_165 ?v_52) ?v_213)) (or (or ?v_40 ?v_91) ?v_33)) (or (or P47 P27) ?v_263)) (or (or ?v_7 ?v_144) P37)) (or (or ?v_185 ?v_185) ?v_107)) (or (or ?v_81 ?v_153) ?v_0)) (or (or ?v_196 ?v_79) ?v_186)) (or (or ?v_58 ?v_74) ?v_256)) (or (or ?v_166 ?v_264) ?v_171)) (or (or ?v_100 ?v_61) ?v_157)) (or (or ?v_77 ?v_43) P14)) (or (or ?v_94 ?v_98) ?v_18)) (or (or ?v_83 ?v_78) ?v_109)) (or (or P22 P8) ?v_54)) (or (or ?v_17 ?v_265) ?v_94)) (or (or ?v_80 ?v_37) ?v_51)) (or (or P33 ?v_171) P13)) (or (or ?v_225 P13) ?v_198)) (or (or ?v_213 ?v_158) ?v_264)) (or (or ?v_113 ?v_0) ?v_179)) (or (or ?v_110 ?v_250) P36)) (or (or ?v_250 ?v_123) ?v_211)) (or (or ?v_219 P26) ?v_243)) (or (or ?v_205 ?v_73) ?v_59)) (or (or ?v_212 ?v_151) ?v_191)) (or (or ?v_27 P6) ?v_178)) (or (or ?v_165 ?v_259) ?v_240)) (or (or ?v_7 P46) ?v_188)) (or (or ?v_69 ?v_122) ?v_266)) (or (or P30 ?v_217) ?v_3)) (or (or ?v_117 ?v_232) ?v_237)) (or (or ?v_20 ?v_241) ?v_5)) (or (or ?v_202 ?v_152) ?v_223)) (or (or ?v_196 P7) ?v_159)) (or (or P36 ?v_18) P42)) (or (or ?v_97 ?v_257) ?v_81)) (or (or ?v_233 ?v_119) ?v_231)) (or (or ?v_255 ?v_232) ?v_201)) (or (or P22 ?v_204) ?v_216)) (or (or ?v_161 ?v_130) ?v_221)) (or (or ?v_215 P28) ?v_35)) (or (or P29 ?v_102) P46)) (or (or P44 ?v_249) ?v_267)) (or (or ?v_140 ?v_94) P21)) (or (or P34 ?v_164) ?v_60)) (or (or P36 P28) ?v_104)) (or (or ?v_131 ?v_123) P36)) (or (or ?v_52 ?v_159) ?v_242)) (or (or P34 ?v_31) ?v_219)) (or (or ?v_19 ?v_19) ?v_142)) (or (or ?v_79 ?v_267) ?v_56)) (or (or ?v_51 ?v_151) ?v_147)) (or (or ?v_4 ?v_266) ?v_204)) (or (or ?v_132 ?v_195) ?v_203)) (or (or ?v_176 P14) ?v_34)) (or (or ?v_17 ?v_154) ?v_213)) (or (or ?v_215 ?v_17) ?v_46)) (or (or ?v_171 ?v_176) ?v_102)) (or (or ?v_130 ?v_33) ?v_205)) (or (or ?v_114 ?v_225) ?v_195)) (or (or P20 ?v_202) ?v_217)) (or (or ?v_196 ?v_97) ?v_219)) (or (or ?v_113 ?v_3) ?v_220)) (or (or ?v_138 P27) ?v_84)))))))))))))))))))))))))))))))))))))))))
(check-sat)
(exit)
